# compute radial distribution function

# system properties
units           metal
atom_style      atomic
read_data       data.CuZr
mass            1 1.0
mass            2 1.0
timestep        0.002

# information about dumpfile
variable        t_total equal 100
variable        t_save_every equal 0.01
variable        nstep equal ${t_total}/dt
variable        nframe equal ${t_total}/${t_save_every}
variable        Dumpfile string ${nframe}frames-${t_save_every}ps.dump.gz

# compute settings
variable        RDFfile string rdf.dat
variable        rcutoff equal 10.0
variable        t_comput_every equal 10
variable        rho equal count(all)/vol
variable        nevery equal ${t_comput_every}/dt
variable        nrepeat equal ${nstep}/${nevery}

# turn off pair style, build neighbor list only
pair_style      zero ${rcutoff} nocoeff
pair_coeff      * *

# append density to the RDF file
fix             1 all nve
compute         myRDF all rdf 500 * *
fix             2 all ave/time ${nevery} ${nrepeat} ${nstep} c_myRDF[1] c_myRDF[2] file ${RDFfile} mode vector
fix             3 all ave/time ${nevery} ${nrepeat} ${nstep} v_rho mode scalar
rerun           ${Dumpfile} every ${nevery} dump x y z
print           $(f_3) append ${RDFfile} universe no
