# 3d Lennard-Jones radial distribution function

units           lj
atom_style      atomic
read_data       data.LJ
mass            1 1.0

# turn off pair style, only build neighbor list
variable        rcutoff equal 8.0
pair_style      zero ${rcutoff} nocoeff
pair_coeff      * *

fix             1 all nve
compute         myRDF all rdf 400 * *
fix             2 all ave/time 50 100 10000 c_myRDF[1] c_myRDF[2] file rdf.dat mode vector
rerun           LJ-natom4000-nframe1000-dt0.05.dump every 50 dump x y z
