# 3d Lennard-Jones radial distribution function

variable        rcutoff equal 8.0
variable        RDFfile string rdf.dat

units           lj
atom_style      atomic
read_data       data.LJ
mass            1 1.0
variable        rho equal count(all)/vol

# turn off pair style, only build neighbor list
pair_style      zero ${rcutoff} nocoeff
pair_coeff      * *

fix             1 all nve
compute         myRDF all rdf 400 * *
fix             2 all ave/time 50 100 10000 c_myRDF[1] c_myRDF[2] file ${RDFfile} mode vector
fix             3 all ave/time 50 100 10000 v_rho mode scalar
rerun           LJ-natom4000-nframe1000-dt0.05.dump every 50 dump x y z
print           $(f_3) append ${RDFfile} universe no